
n_res = 8;
rcap = [73, 74, 73, 68, 894, 882, 812, 867];
rtype = [1, 1, 1, 1, 2, 2, 2, 2];
n_tasks = 50;
modes =  [{1, 2, 3, 4, 5, 6}, {7, 8, 9, 10, 11, 12}, {13, 14, 15, 16, 17, 18}, {19, 20, 21, 22, 23, 24}, {25, 26, 27, 28, 29, 30}, {31, 32, 33, 34, 35, 36}, {37, 38, 39, 40, 41, 42}, {43, 44, 45, 46, 47, 48}, {49, 50, 51, 52, 53, 54}, {55, 56, 57, 58, 59, 60}, {61, 62, 63, 64, 65, 66}, {67, 68, 69, 70, 71, 72}, {73, 74, 75, 76, 77, 78}, {79, 80, 81, 82, 83, 84}, {85, 86, 87, 88, 89, 90}, {91, 92, 93, 94, 95, 96}, {97, 98, 99, 100, 101, 102}, {103, 104, 105, 106, 107, 108}, {109, 110, 111, 112, 113, 114}, {115, 116, 117, 118, 119, 120}, {121, 122, 123, 124, 125, 126}, {127, 128, 129, 130, 131, 132}, {133, 134, 135, 136, 137, 138}, {139, 140, 141, 142, 143, 144}, {145, 146, 147, 148, 149, 150}, {151, 152, 153, 154, 155, 156}, {157, 158, 159, 160, 161, 162}, {163, 164, 165, 166, 167, 168}, {169, 170, 171, 172, 173, 174}, {175, 176, 177, 178, 179, 180}, {181, 182, 183, 184, 185, 186}, {187, 188, 189, 190, 191, 192}, {193, 194, 195, 196, 197, 198}, {199, 200, 201, 202, 203, 204}, {205, 206, 207, 208, 209, 210}, {211, 212, 213, 214, 215, 216}, {217, 218, 219, 220, 221, 222}, {223, 224, 225, 226, 227, 228}, {229, 230, 231, 232, 233, 234}, {235, 236, 237, 238, 239, 240}, {241, 242, 243, 244, 245, 246}, {247, 248, 249, 250, 251, 252}, {253, 254, 255, 256, 257, 258}, {259, 260, 261, 262, 263, 264}, {265, 266, 267, 268, 269, 270}, {271, 272, 273, 274, 275, 276}, {277, 278, 279, 280, 281, 282}, {283, 284, 285, 286, 287, 288}, {289, 290, 291, 292, 293, 294}, {295, 296, 297, 298, 299, 300}];
succ =  [{21, 20, 18, 16, 12, 10, 4}, {23, 22, 20, 19, 9}, {19, 18, 16, 12, 11}, {33, 31, 27, 26, 17, 13}, {33, 27, 25, 24, 17, 12}, {25, 24, 19, 12}, {31, 30, 29, 28, 26, 24, 22, 18}, {31, 29, 28, 24, 22, 20, 18}, {29, 27, 26, 16, 13}, {36, 28, 26, 25, 22, 19}, {50, 49, 37, 36, 33, 32, 31, 26, 25, 24}, {36, 34, 30, 29, 28, 26, 22}, {37, 36, 32, 30, 28, 25, 24}, {36, 32, 31, 30, 28, 26, 23}, {50, 37, 33, 31, 30, 23}, {49, 45, 36, 33, 32, 25}, {50, 49, 48, 29, 22}, {49, 47, 46, 36, 34, 33, 25}, {50, 49, 48, 47, 46, 45, 34, 33, 31}, {48, 47, 46, 45, 43, 38, 34, 30}, {48, 40, 37, 36, 33, 29}, {44, 40, 38, 37, 32}, {47, 46, 45, 44, 43, 38, 34}, {48, 45, 43, 35, 34}, {48, 43, 40, 38, 35}, {48, 47, 45, 43, 40, 39}, {50, 46, 44, 43, 40, 39}, {50, 45, 43, 40, 38}, {47, 46, 45, 44, 42, 39}, {49, 42, 35}, {44, 43, 42, 39}, {47, 46, 43, 41}, {43, 42, 39}, {40, 39}, {44, 39}, {42, 39}, {46, 45}, {39}, {41}, {42}, {}, {}, {}, {}, {}, {}, {}, {}, {}, {}];
n_opt = 300;
dur = [3, 10, 17, 18, 25, 28, 4, 8, 13, 15, 16, 27, 3, 6, 14, 15, 21, 22, 1, 4, 6, 7, 8, 26, 6, 11, 13, 19, 26, 28, 7, 9, 10, 14, 16, 19, 2, 8, 10, 18, 24, 27, 2, 11, 14, 18, 24, 28, 5, 13, 15, 22, 29, 30, 5, 13, 16, 17, 18, 21, 5, 6, 12, 16, 22, 27, 5, 12, 13, 25, 28, 30, 3, 4, 10, 13, 14, 22, 10, 19, 21, 22, 28, 29, 2, 19, 20, 21, 25, 26, 4, 9, 16, 19, 20, 27, 3, 7, 8, 21, 27, 28, 2, 3, 4, 10, 11, 17, 2, 4, 8, 10, 14, 21, 2, 8, 12, 17, 18, 29, 2, 3, 13, 17, 20, 21, 6, 10, 12, 13, 22, 28, 10, 11, 12, 18, 26, 29, 1, 3, 4, 15, 23, 29, 8, 10, 17, 21, 26, 30, 1, 8, 11, 14, 18, 20, 15, 17, 18, 24, 25, 26, 6, 9, 15, 18, 23, 26, 1, 11, 13, 15, 17, 19, 1, 15, 19, 20, 24, 26, 10, 13, 14, 15, 16, 26, 1, 10, 19, 20, 25, 26, 2, 4, 8, 9, 17, 27, 2, 5, 10, 11, 21, 29, 13, 15, 19, 21, 23, 30, 1, 2, 11, 14, 19, 30, 7, 9, 11, 16, 18, 19, 11, 17, 18, 24, 28, 30, 2, 13, 15, 21, 25, 29, 12, 15, 17, 22, 25, 30, 16, 17, 18, 19, 20, 25, 3, 13, 23, 24, 25, 26, 3, 16, 17, 20, 24, 30, 12, 13, 16, 18, 19, 21, 6, 7, 10, 19, 25, 28, 1, 6, 14, 17, 19, 30, 2, 4, 12, 19, 20, 26, 8, 12, 19, 20, 21, 29, 3, 8, 12, 13, 25, 30, 3, 18, 21, 27, 28, 30];
rreq = [|15, 12, 9, 7, 7, 4, 25, 25, 24, 24, 24, 23, 25, 18, 18, 10, 5, 2, 14, 12, 12, 10, 10, 9, 21, 21, 20, 19, 17, 17, 18, 18, 18, 17, 17, 17, 27, 21, 21, 15, 9, 7, 27, 27, 25, 23, 21, 18, 25, 22, 20, 19, 17, 14, 13, 10, 10, 9, 6, 6, 10, 8, 8, 7, 7, 6, 22, 20, 18, 17, 16, 14, 27, 25, 21, 19, 12, 10, 20, 17, 14, 11, 9, 4, 25, 25, 25, 25, 24, 24, 9, 8, 8, 7, 6, 6, 18, 15, 14, 13, 9, 9, 19, 19, 19, 19, 19, 19, 21, 20, 19, 16, 15, 14, 24, 21, 19, 14, 11, 6, 24, 23, 23, 21, 19, 18, 8, 7, 7, 7, 6, 6, 25, 20, 20, 16, 13, 11, 26, 25, 25, 24, 23, 23, 21, 19, 18, 15, 9, 8, 13, 10, 9, 7, 6, 4, 6, 5, 5, 5, 5, 5, 17, 14, 10, 7, 4, 3, 7, 6, 5, 5, 4, 3, 25, 23, 21, 19, 17, 15, 27, 27, 25, 24, 23, 23, 14, 13, 13, 13, 12, 12, 29, 22, 18, 15, 8, 6, 20, 15, 14, 12, 9, 5, 25, 21, 19, 16, 15, 12, 23, 23, 23, 23, 23, 23, 24, 21, 20, 18, 16, 14, 24, 20, 15, 13, 10, 3, 26, 25, 23, 20, 19, 15, 27, 25, 23, 20, 18, 16, 18, 16, 16, 15, 14, 13, 17, 16, 14, 12, 11, 11, 23, 19, 18, 16, 13, 9, 16, 16, 15, 15, 15, 14, 8, 7, 7, 5, 4, 3, 26, 25, 25, 24, 23, 23, 21, 20, 20, 19, 19, 18, 19, 18, 18, 18, 18, 18, 19, 16, 14, 14, 11, 10, 22, 20, 20, 20, 19, 18
 |23, 19, 16, 16, 12, 11, 27, 25, 23, 21, 20, 19, 30, 29, 29, 29, 29, 29, 26, 21, 17, 10, 8, 1, 12, 11, 10, 7, 7, 5, 24, 21, 19, 16, 13, 12, 29, 29, 29, 29, 28, 28, 24, 21, 21, 19, 15, 12, 14, 13, 12, 12, 11, 10, 28, 27, 26, 26, 25, 24, 23, 23, 23, 22, 22, 22, 26, 23, 19, 19, 16, 10, 26, 26, 25, 25, 24, 24, 22, 19, 19, 17, 11, 10, 18, 15, 15, 11, 9, 8, 7, 7, 7, 7, 6, 6, 28, 25, 21, 20, 19, 15, 26, 22, 20, 17, 14, 13, 27, 22, 16, 14, 10, 8, 17, 15, 15, 13, 13, 12, 12, 10, 9, 8, 7, 7, 11, 10, 8, 8, 6, 6, 24, 20, 15, 9, 8, 5, 6, 5, 4, 3, 2, 2, 20, 20, 20, 20, 19, 19, 29, 28, 26, 26, 25, 23, 27, 25, 22, 22, 19, 18, 26, 24, 23, 20, 19, 18, 18, 17, 15, 12, 12, 9, 14, 12, 9, 7, 4, 2, 13, 11, 10, 7, 6, 4, 24, 22, 17, 14, 13, 10, 8, 8, 7, 4, 4, 2, 12, 11, 11, 10, 10, 10, 21, 16, 14, 10, 6, 4, 13, 13, 11, 11, 10, 9, 20, 17, 16, 13, 12, 10, 4, 4, 4, 4, 4, 4, 25, 25, 23, 18, 18, 15, 14, 12, 10, 7, 6, 2, 22, 20, 14, 10, 9, 6, 16, 15, 11, 8, 5, 4, 8, 6, 5, 5, 4, 3, 20, 18, 17, 17, 15, 14, 24, 24, 24, 24, 23, 23, 25, 21, 17, 11, 7, 6, 14, 12, 10, 8, 7, 5, 10, 7, 7, 4, 4, 1, 9, 9, 9, 9, 9, 9, 7, 5, 5, 4, 2, 1
 |30, 21, 19, 13, 10, 5, 24, 23, 22, 20, 19, 19, 22, 20, 18, 17, 13, 11, 16, 13, 13, 7, 6, 1, 20, 20, 20, 20, 20, 20, 12, 11, 10, 10, 9, 9, 30, 27, 26, 24, 22, 21, 21, 19, 16, 14, 8, 8, 23, 22, 22, 21, 20, 20, 18, 17, 16, 13, 11, 11, 22, 20, 18, 16, 16, 14, 24, 20, 17, 12, 6, 2, 22, 17, 16, 9, 4, 3, 26, 25, 24, 24, 23, 22, 19, 17, 15, 14, 10, 10, 17, 15, 11, 10, 7, 5, 15, 13, 11, 9, 6, 5, 9, 8, 7, 5, 5, 4, 9, 9, 9, 9, 9, 9, 12, 12, 11, 11, 9, 9, 16, 16, 12, 10, 10, 7, 21, 21, 21, 21, 21, 21, 26, 23, 22, 18, 15, 12, 20, 19, 19, 18, 18, 17, 17, 17, 15, 13, 12, 11, 25, 23, 21, 17, 14, 13, 10, 9, 8, 6, 6, 5, 27, 26, 24, 19, 16, 16, 8, 8, 7, 5, 5, 3, 14, 13, 13, 11, 9, 7, 30, 25, 23, 22, 18, 17, 6, 6, 6, 6, 6, 6, 18, 17, 16, 15, 13, 12, 7, 6, 6, 5, 4, 4, 26, 26, 26, 26, 26, 26, 19, 19, 19, 18, 18, 17, 26, 21, 18, 14, 11, 10, 25, 19, 19, 15, 8, 3, 20, 18, 17, 16, 14, 14, 11, 10, 6, 4, 2, 2, 23, 22, 19, 17, 14, 12, 28, 28, 27, 26, 25, 25, 13, 13, 13, 12, 12, 12, 26, 25, 21, 20, 17, 13, 28, 25, 24, 21, 19, 18, 25, 24, 21, 20, 16, 16, 18, 18, 16, 15, 15, 14, 26, 20, 20, 16, 10, 6, 28, 22, 16, 12, 8, 7, 15, 13, 13, 12, 10, 9
 |5, 4, 3, 3, 2, 2, 24, 22, 19, 18, 17, 15, 16, 15, 15, 15, 13, 13, 23, 22, 22, 22, 22, 22, 28, 27, 25, 23, 22, 21, 29, 29, 29, 29, 29, 29, 9, 9, 9, 8, 8, 7, 18, 18, 18, 17, 17, 16, 20, 18, 16, 13, 11, 11, 21, 18, 17, 16, 15, 14, 24, 24, 22, 21, 21, 20, 29, 20, 16, 16, 10, 3, 27, 26, 23, 23, 19, 18, 7, 5, 4, 3, 3, 2, 21, 19, 16, 15, 9, 6, 12, 10, 10, 7, 7, 6, 30, 24, 19, 16, 9, 9, 12, 11, 9, 9, 8, 5, 26, 24, 20, 18, 15, 11, 29, 25, 18, 14, 12, 9, 12, 9, 8, 5, 4, 2, 6, 4, 4, 3, 3, 2, 5, 5, 3, 2, 1, 1, 25, 22, 22, 21, 19, 18, 16, 12, 12, 9, 7, 6, 18, 17, 16, 14, 14, 12, 19, 18, 16, 16, 13, 13, 22, 18, 17, 13, 11, 10, 16, 15, 14, 12, 12, 11, 21, 16, 12, 9, 8, 6, 20, 15, 12, 7, 4, 2, 19, 19, 19, 19, 18, 18, 20, 16, 16, 12, 8, 4, 21, 17, 13, 10, 7, 4, 23, 20, 20, 18, 15, 14, 25, 24, 20, 17, 12, 11, 26, 22, 20, 20, 16, 16, 19, 18, 17, 17, 16, 16, 25, 20, 15, 12, 10, 7, 27, 27, 26, 26, 25, 25, 21, 20, 20, 19, 19, 18, 28, 23, 22, 19, 18, 17, 27, 26, 26, 26, 26, 26, 15, 13, 12, 9, 8, 6, 28, 24, 21, 14, 13, 11, 7, 7, 7, 7, 6, 6, 27, 27, 26, 25, 23, 23, 18, 16, 15, 15, 14, 12, 24, 24, 23, 23, 23, 22, 21, 16, 15, 10, 7, 4
 |26, 26, 24, 24, 22, 22, 6, 6, 6, 6, 6, 6, 22, 21, 21, 21, 20, 20, 29, 26, 22, 19, 14, 11, 19, 19, 19, 18, 17, 17, 24, 24, 23, 21, 20, 19, 13, 9, 9, 7, 3, 2, 27, 26, 26, 24, 24, 22, 11, 10, 8, 6, 5, 4, 25, 25, 18, 15, 15, 11, 15, 15, 13, 12, 12, 10, 23, 19, 15, 13, 12, 6, 23, 20, 17, 17, 15, 12, 9, 8, 8, 7, 5, 5, 19, 14, 13, 9, 6, 5, 17, 16, 15, 10, 10, 7, 30, 23, 22, 17, 14, 11, 4, 4, 4, 3, 3, 3, 20, 20, 18, 16, 12, 10, 16, 14, 14, 12, 11, 11, 26, 20, 15, 13, 8, 5, 27, 20, 17, 15, 10, 10, 28, 28, 26, 25, 24, 23, 23, 23, 23, 23, 23, 23, 16, 15, 12, 10, 7, 2, 17, 15, 15, 14, 13, 12, 21, 19, 19, 17, 16, 14, 18, 18, 17, 17, 15, 15, 21, 20, 20, 19, 18, 18, 20, 19, 17, 15, 14, 13, 16, 16, 15, 15, 15, 14, 16, 15, 13, 12, 12, 10, 10, 8, 7, 5, 5, 3, 30, 27, 22, 22, 18, 15, 23, 20, 17, 11, 11, 5, 21, 20, 20, 20, 20, 20, 2, 1, 1, 1, 1, 1, 22, 20, 20, 18, 18, 17, 27, 23, 20, 15, 13, 9, 12, 12, 12, 12, 12, 12, 27, 27, 24, 21, 19, 16, 26, 20, 16, 11, 8, 4, 15, 14, 13, 11, 9, 8, 24, 22, 22, 21, 21, 20, 13, 11, 9, 8, 6, 4, 26, 22, 20, 13, 8, 7, 28, 27, 27, 25, 25, 23, 27, 22, 16, 12, 12, 5, 17, 14, 13, 13, 10, 10, 27, 24, 22, 18, 16, 13
 |15, 12, 8, 7, 3, 2, 27, 24, 21, 20, 17, 17, 5, 4, 4, 2, 1, 1, 27, 24, 22, 15, 15, 10, 8, 6, 6, 5, 4, 3, 22, 19, 19, 14, 12, 10, 21, 21, 16, 15, 13, 9, 28, 23, 20, 15, 6, 4, 13, 13, 12, 12, 11, 11, 24, 22, 20, 20, 17, 17, 17, 16, 16, 16, 16, 16, 26, 24, 21, 20, 14, 12, 29, 27, 26, 23, 21, 21, 10, 10, 10, 10, 10, 10, 14, 13, 10, 8, 8, 5, 18, 15, 15, 9, 8, 3, 28, 27, 26, 24, 23, 21, 27, 24, 23, 23, 20, 20, 14, 12, 11, 9, 7, 7, 18, 17, 16, 16, 15, 15, 20, 20, 19, 17, 17, 16, 26, 25, 24, 23, 22, 21, 12, 11, 9, 7, 4, 2, 17, 16, 15, 15, 13, 12, 26, 23, 21, 17, 17, 14, 16, 15, 13, 12, 10, 7, 28, 27, 24, 23, 20, 18, 17, 15, 12, 10, 7, 3, 14, 12, 11, 10, 10, 9, 23, 22, 20, 20, 18, 16, 16, 13, 12, 10, 7, 6, 27, 27, 25, 24, 24, 23, 30, 28, 28, 28, 26, 26, 24, 23, 22, 22, 22, 21, 26, 23, 21, 18, 15, 14, 21, 18, 16, 15, 12, 9, 28, 22, 20, 18, 15, 10, 20, 15, 13, 13, 8, 8, 16, 14, 14, 12, 11, 11, 26, 24, 23, 22, 22, 21, 17, 15, 14, 13, 13, 12, 17, 17, 17, 17, 17, 17, 12, 10, 10, 9, 7, 7, 24, 23, 23, 21, 21, 20, 3, 3, 3, 3, 3, 3, 6, 6, 6, 6, 5, 5, 29, 29, 29, 29, 29, 29, 18, 15, 13, 11, 10, 7, 16, 12, 11, 9, 7, 4, 14, 11, 9, 9, 5, 5
 |9, 9, 8, 8, 8, 7, 4, 4, 3, 2, 1, 1, 24, 21, 20, 17, 14, 11, 21, 18, 14, 10, 8, 4, 7, 7, 7, 6, 6, 6, 22, 18, 15, 10, 8, 4, 20, 18, 16, 16, 14, 14, 22, 19, 18, 17, 12, 10, 10, 8, 7, 7, 5, 5, 26, 25, 24, 22, 19, 16, 19, 19, 16, 14, 11, 7, 15, 15, 13, 11, 10, 9, 24, 19, 14, 9, 5, 3, 18, 18, 15, 12, 12, 8, 13, 12, 10, 8, 8, 6, 24, 24, 24, 24, 24, 24, 29, 23, 19, 16, 13, 12, 25, 24, 23, 23, 21, 21, 16, 14, 12, 11, 9, 6, 18, 15, 10, 8, 5, 4, 28, 28, 27, 26, 25, 24, 2, 1, 1, 1, 1, 1, 11, 9, 9, 7, 7, 5, 6, 5, 5, 5, 4, 4, 25, 20, 18, 17, 11, 8, 14, 12, 12, 11, 10, 9, 22, 18, 17, 15, 10, 8, 26, 24, 21, 16, 16, 12, 29, 24, 22, 22, 17, 17, 19, 15, 13, 11, 10, 5, 30, 28, 26, 25, 24, 23, 10, 8, 7, 6, 3, 2, 20, 19, 16, 12, 10, 10, 23, 21, 18, 18, 15, 14, 21, 21, 21, 21, 21, 21, 19, 19, 19, 19, 19, 19, 18, 12, 11, 7, 5, 1, 26, 26, 26, 26, 25, 25, 21, 18, 16, 15, 9, 9, 25, 23, 23, 22, 22, 21, 6, 4, 4, 4, 2, 2, 15, 15, 15, 14, 14, 14, 30, 29, 28, 26, 26, 25, 14, 9, 8, 7, 4, 3, 5, 5, 5, 5, 5, 5, 20, 18, 17, 16, 15, 14, 21, 19, 17, 16, 12, 12, 8, 7, 6, 6, 5, 4, 19, 19, 19, 19, 18, 18, 11, 10, 9, 9, 9, 8
 |25, 23, 23, 22, 19, 18, 26, 22, 19, 18, 14, 12, 27, 25, 23, 23, 22, 20, 26, 25, 19, 19, 12, 10, 14, 12, 11, 9, 9, 6, 25, 24, 19, 16, 16, 13, 19, 19, 15, 13, 12, 8, 14, 13, 13, 13, 13, 13, 22, 22, 22, 22, 22, 22, 27, 24, 24, 20, 19, 16, 27, 23, 22, 19, 17, 14, 24, 19, 18, 11, 5, 2, 25, 24, 21, 19, 15, 12, 19, 17, 16, 14, 13, 11, 23, 17, 14, 13, 6, 2, 9, 8, 5, 5, 2, 2, 16, 15, 13, 10, 8, 4, 22, 20, 19, 16, 12, 9, 24, 21, 21, 17, 15, 13, 13, 11, 9, 7, 6, 3, 20, 17, 17, 13, 10, 8, 24, 21, 20, 19, 17, 15, 29, 26, 24, 23, 19, 18, 21, 19, 17, 16, 13, 12, 3, 3, 2, 2, 1, 1, 13, 12, 12, 12, 11, 11, 22, 21, 20, 19, 18, 18, 23, 23, 18, 17, 13, 10, 12, 12, 11, 10, 9, 7, 29, 25, 21, 17, 11, 7, 26, 25, 25, 23, 22, 22, 11, 9, 8, 8, 6, 4, 20, 19, 19, 17, 16, 16, 21, 17, 16, 14, 9, 7, 10, 9, 8, 7, 6, 6, 19, 16, 14, 11, 9, 4, 21, 19, 17, 14, 9, 7, 17, 16, 14, 14, 12, 12, 17, 16, 16, 15, 13, 13, 16, 12, 12, 7, 7, 4, 14, 13, 13, 13, 12, 12, 26, 22, 15, 11, 10, 6, 27, 25, 22, 21, 19, 16, 29, 27, 24, 19, 19, 16, 10, 7, 6, 4, 2, 2, 26, 23, 22, 22, 18, 17, 7, 7, 7, 6, 6, 6, 19, 18, 13, 12, 8, 3, 12, 10, 9, 8, 6, 5, 16, 15, 14, 13, 13, 12|];